Route #1: 26
Route #2: 4
Route #3: 17 51 6
Route #4: 34 46 8
Route #5: 12 40 44
Route #6: 38 11
Route #7: 52 27 45 29
Route #8: 7 35 19 54 13
Route #9: 23 43 1 33
Route #10: 48 30 2
Route #11: 39 9 25
Route #12: 14 53
Route #13: 31 10
Route #14: 15 20 37 5
Route #15: 50 18 24 49
Route #16: 21 47 36
Route #17: 16 3 32
Route #18: 28 22 42 41
cost: 1018.5778555523816
